COLUMNS

passenger_count
pickup_ID
dropoff_ID
request_time_sec
pickup_district
dropoff_district
LDuals
IDuals
vehicle_ID
pick_position
drop_position

REQUESTS_INFO
1      560       652       30684     189       189       112       112       14        1         4         
1      189       577       30634     286       189       131       131       18        1         3         
1      783       433       30673     50        52        129       129       23        1         3         
1      771       737       30686     290       189       144       144       50        1         3         
1      794       938       30654     290       291       202       202       116       1         2         
1      579       644       30682     189       131       96        96        118       1         3         
3      888       649       30611     290       189       293       293       151       1         2         
3      816       969       30616     290       290       234       234       159       1         2         
1      926       1011      30652     290       84        207       207       230       1         2         
1      928       551       30389     290       189       525       525       237       1         2         
3      337       582       30675     277       189       166       166       272       1         3         
1      280       429       30666     277       999       256       256       272       2         4         
3      488       727       30679     199       290       173       173       286       1         2         
1      452       116       30653     52        9         161       161       323       1         2         
1      874       1005      30664     291       50        186       186       329       1         3         
3      893       673       30661     291       189       208       208       329       2         4         
1      663       655       30677     131       189       116       116       345       1         2         
3      969       835       30611     290       290       247       247       348       1         3         
1      970       923       30596     290       290       269       269       348       2         4         
1      330       674       30686     127       189       171       171       370       1         2         
1      980       1127      30637     291       291       179       179       372       1         4         
3      950       651       30656     290       189       230       230       397       1         3         
1      936       991       30664     291       290       139       139       407       1         3         
3      939       630       30684     291       189       242       242       407       2         4         
2      906       97        30660     290       9         217       217       486       1         3         
1      336       46        30676     277       98        147       147       488       1         3         
1      864       1218      30645     290       84        207.5     207.5     521       1         3         
2      802       559       30684     291       189       150       150       551       1         3         
2      849       372       30670     291       119       259       259       551       2         4         
3      488       727       30679     199       290       173       173       601       1         2         
3      950       607       30662     290       189       224       224       606       1         2         
1      644       616       30650     131       131       158       158       617       1         3         
1      524       412       30678     52        52        150       150       619       1         2         
1      876       971       30641     50        290       233       233       651       1         2         
1      663       970       30689     131       290       104       104       661       1         2         
1      962       913       30679     291       291       193       193       670       1         3         
1      767       209       30649     290       266       138       138       714       1         4         
2      860       693       30623     290       280       250.5     250.5     733       1         2         
1      836       504       30667     290       52        152       152       737       1         5         
2      837       885       30683     290       290       164.5     164.5     737       2         3         
1      992       925       30608     290       290       276       276       792       1         2         
3      850       781       30668     291       291       192       192       843       1         2         
3      908       885       30457     290       290       463       463       907       1         2         
1      928       925       30628     290       290       249       249       931       1         2         
3      939       630       30684     291       189       242       242       934       1         2         
1      332       532       30679     87        199       138.5     138.5     943       1         3         
3      386       116       30687     299       9         167       167       953       1         2         
3      950       607       30662     290       189       224       224       963       1         3         
1      816       738       30613     290       189       244       244       968       1         2         
2      386       116       30687     299       9         167       167       981       1         2         
2      761       421       30677     50        168       123       123       1042      1         3         
3      475       372       30686     52        119       147       147       1051      1         3         
1      886       760       30569     290       291       311       311       1061      1         2         
1      1023      720       30640     291       290       205       205       1063      1         2         
1      771       748       30668     290       290       131       131       1093      1         3         
3      893       673       30661     291       189       208       208       1110      1         2         
1      488       556       30669     199       199       183       183       1120      1         2         
1      876       1027      30635     50        50        239       239       1123      1         2         
3      366       575       30675     299       189       162       162       1130      1         2         
1      969       604       30630     290       189       210       210       1134      1         3         
2      925       1026      30629     290       291       277       277       1140      1         2         
2      888       649       30611     290       189       293       293       1154      1         2         
1      961       627       30658     291       189       194       194       1185      1         3         
1      840       602       30653     290       189       199       199       1193      1         4         
1      702       96        30607     290       9         208       208       1207      1         2         
4      980       1048      30489     291       291       375       375       1214      1         2         
3      925       818       30602     290       290       287       287       1229      1         2         
3      802       559       30684     291       189       150       150       1264      1         2         
1      1127      1045      30643     291       291       205       205       1268      1         2         
3      850       781       30668     291       291       192       192       1275      1         2         
1      842       815       30491     290       290       387       387       1296      1         2         
3      837       885       30683     290       290       164.5     164.5     1326      1         2         
2      888       925       30681     290       290       211       211       1334      1         2         
3      927       837       30682     290       290       224       224       1344      1         2         
1      916       209       30645     291       266       183       183       1376      1         3         
1      960       836       30636     291       290       230       230       1431      1         2         
1      371       475       30674     52        52        120       120       1445      1         2         
1      802       947       30688     291       290       147       147       1446      1         3         
3      813       767       30672     290       290       189.5     189.5     1448      1         2         
1      1045      937       30672     291       291       135       135       1461      1         2         
3      927       837       30682     290       290       224       224       1517      1         2         
1      833       858       30672     50        290       166       166       1561      1         3         
1      947       674       30673     290       189       184       184       1592      1         4         
1      948       559       30664     290       189       211       211       1592      2         5         
3      1000      824       30646     291       291       225       225       1719      1         2         
2      440       507       30686     168       189       112       112       1726      1         2         
1      895       651       30684     291       189       150       150       1736      1         2         
1      479       718       30672     52        189       120       120       1836      1         3         
3      702       767       30667     290       290       140.5     140.5     1845      1         2         
1      925       548       30636     290       52        211       211       1849      1         4         
1      862       792       30399     290       290       492.5     492.5     1880      1         2         
1      947       675       30646     290       189       211       211       1890      1         2         
1      863       759       30620     290       131       270       270       1902      1         2         
2      418       711       30675     168       131       141       141       1917      1         3         
1      354       510       30660     119       199       146.5     146.5     1918      1         2         
1      368       393       30666     299       52        136       136       1931      1         2         
2      886       925       30588     290       290       324       324       1958      1         2         
3      842       629       30538     290       189       362       362       1960      1         2         
2      947       652       30510     290       189       363       363       1978      1         2         
2      813       767       30672     290       290       182.5     182.5     1980      1         3         
1      309       717       30690     127       189       0         0         0         0         0         
1      510       355       30690     199       119       0         0         0         0         0         
2      527       416       30690     52        100       0         0         0         0         0         
2      873       937       30690     291       291       0         0         0         0         0         
2      604       421       30690     189       168       0         0         0         0         0         
1      1001      649       30690     291       189       0         0         0         0         0         
3      781       1021      30690     291       291       0         0         0         0         0         
1      534       728       30691     199       290       0         0         0         0         0         
1      950       905       30691     290       290       0         0         0         0         0         
1      702       990       30691     290       290       0         0         0         0         0         
1      577       288       30691     189       127       0         0         0         0         0         
3      744       604       30692     290       189       0         0         0         0         0         
2      557       372       30692     189       119       0         0         0         0         0         
4      632       923       30692     189       290       0         0         0         0         0         
3      744       604       30692     290       189       0         0         0         0         0         
1      549       694       30692     52        189       0         0         0         0         0         
1      1355      1285      30692     129       129       0         0         0         0         0         
1      723       627       30692     290       189       0         0         0         0         0         
3      557       372       30692     189       119       0         0         0         0         0         
1      195       534       30692     207       199       0         0         0         0         0         
2      805       1023      30693     291       291       0         0         0         0         0         
1      970       578       30693     290       189       0         0         0         0         0         
2      749       698       30693     290       189       0         0         0         0         0         
4      1152      825       30693     291       291       0         0         0         0         0         
1      647       557       30693     280       189       0         0         0         0         0         
1      680       728       30693     290       290       0         0         0         0         0         
1      332       604       30694     87        189       0         0         0         0         0         
2      793       748       30694     290       290       0         0         0         0         0         
1      1046      1003      30694     291       291       0         0         0         0         0         
3      837       601       30695     290       189       0         0         0         0         0         
2      837       601       30695     290       189       0         0         0         0         0         
3      624       647       30695     189       280       0         0         0         0         0         
2      624       647       30695     189       280       0         0         0         0         0         
1      1460      1371      30695     129       129       0         0         0         0         0         
1      720       770       30695     290       290       0         0         0         0         0         
1      34        722       30695     98        290       0         0         0         0         0         
1      188       229       30696     286       266       0         0         0         0         0         
1      582       555       30696     189       199       0         0         0         0         0         
4      716       533       30696     189       199       0         0         0         0         0         
1      722       719       30696     290       189       0         0         0         0         0         
1      915       675       30696     291       189       0         0         0         0         0         
1      511       694       30696     199       189       0         0         0         0         0         
2      208       325       30696     286       299       0         0         0         0         0         
3      439       393       30697     189       52        0         0         0         0         0         
2      575       504       30697     189       52        0         0         0         0         0         
1      369       671       30697     52        280       0         0         0         0         0         
1      527       484       30697     52        189       0         0         0         0         0         
1      1026      651       30697     291       189       0         0         0         0         0         
1      739       600       30697     189       280       0         0         0         0         0         
1      21        578       30697     98        189       0         0         0         0         0         
3      439       393       30697     189       52        0         0         0         0         0         
1      1132      1048      30698     291       291       0         0         0         0         0         
1      560       698       30698     189       189       0         0         0         0         0         
1      631       533       30698     189       199       0         0         0         0         0         
1      737       581       30698     189       189       0         0         0         0         0         
1      582       509       30699     189       199       0         0         0         0         0         
1      801       1530      30699     291       296       0         0         0         0         0         
1      629       1001      30699     189       291       0         0         0         0         0         
1      549       616       30699     52        131       0         0         0         0         0         
1      863       748       30699     290       290       0         0         0         0         0         
2      191       626       30699     266       189       0         0         0         0         0         
1      969       842       30699     290       290       0         0         0         0         0         
1      735       526       30700     131       52        0         0         0         0         0         
1      267       757       30700     266       131       0         0         0         0         0         
1      989       134       30700     50        9         0         0         0         0         0         
2      649       580       30700     189       189       0         0         0         0         0         
2      603       695       30700     189       189       0         0         0         0         0         
3      417       315       30700     100       277       0         0         0         0         0         
3      417       315       30700     100       277       0         0         0         0         0         
1      46        505       30701     98        52        0         0         0         0         0         
1      839       859       30701     290       290       0         0         0         0         0         
1      794       134       30701     290       9         0         0         0         0         0         
1      699       782       30702     290       291       0         0         0         0         0         
1      665       780       30702     131       291       0         0         0         0         0         
3      35        116       30702     98        9         0         0         0         0         0         
1      794       743       30702     290       290       0         0         0         0         0         
2      35        116       30702     98        9         0         0         0         0         0         
1      725       693       30702     290       280       0         0         0         0         0         
4      621       134       30702     280       9         0         0         0         0         0         
1      759       673       30703     131       189       0         0         0         0         0         
1      983       851       30703     291       291       0         0         0         0         0         
1      210       287       30703     266       299       0         0         0         0         0         
1      1003      669       30703     291       280       0         0         0         0         0         
3      325       189       30704     299       286       0         0         0         0         0         
3      325       189       30704     299       286       0         0         0         0         0         
1      117       619       30704     286       131       0         0         0         0         0         
1      1091      850       30704     291       291       0         0         0         0         0         
1      747       532       30704     290       199       0         0         0         0         0         
1      882       959       30704     290       291       0         0         0         0         0         
2      1149      79        30704     291       98        0         0         0         0         0         
1      947       1011      30705     290       84        0         0         0         0         0         
1      356       578       30705     119       189       0         0         0         0         0         
1      349       369       30705     127       52        0         0         0         0         0         
3      760       648       30705     291       189       0         0         0         0         0         
3      760       648       30705     291       189       0         0         0         0         0         
1      236       629       30705     87        189       0         0         0         0         0         
1      201       36        30706     87        98        0         0         0         0         0         
1      726       35        30706     290       98        0         0         0         0         0         
4      701       559       30706     290       189       0         0         0         0         0         
3      719       521       30706     189       52        0         0         0         0         0         
2      719       521       30706     189       52        0         0         0         0         0         
1      579       571       30707     189       52        0         0         0         0         0         
1      528       416       30707     52        100       0         0         0         0         0         
1      136       397       30707     286       168       0         0         0         0         0         
1      249       604       30707     266       189       0         0         0         0         0         
1      479       373       30707     52        119       0         0         0         0         0         
1      950       646       30708     290       280       0         0         0         0         0         
1      991       1225      30708     290       192       0         0         0         0         0         
1      441       534       30708     168       199       0         0         0         0         0         
3      375       10        30709     119       98        0         0         0         0         0         
3      1090      1264      30709     291       192       0         0         0         0         0         
1      533       62        30709     199       98        0         0         0         0         0         
1      621       670       30709     280       280       0         0         0         0         0         
1      558       745       30709     189       290       0         0         0         0         0         
3      375       10        30709     119       98        0         0         0         0         0         
1      372       674       30710     119       189       0         0         0         0         0         
1      458       62        30710     52        98        0         0         0         0         0         
1      527       1226      30710     52        192       0         0         0         0         0         
1      584       605       30710     189       189       0         0         0         0         0         
2      771       675       30711     290       189       0         0         0         0         0         
3      771       675       30711     290       189       0         0         0         0         0         
1      1171      905       30711     192       290       0         0         0         0         0         
1      549       583       30711     52        189       0         0         0         0         0         
1      1475      1245      30711     296       192       0         0         0         0         0         
1      717       616       30711     189       131       0         0         0         0         0         
1      419       531       30712     168       189       0         0         0         0         0         
1      756       461       30712     131       189       0         0         0         0         0         
1      1187      1188      30712     291       192       0         0         0         0         0         
1      937       1225      30712     291       192       0         0         0         0         0         
1      331       247       30712     127       266       0         0         0         0         0         
1      35        421       30713     98        168       0         0         0         0         0         
2      312       439       30713     87        189       0         0         0         0         0         
1      534       62        30713     199       98        0         0         0         0         0         
1      229       351       30713     266       52        0         0         0         0         0         
1      354       268       30713     119       299       0         0         0         0         0         
1      654       535       30713     189       189       0         0         0         0         0         
1      783       744       30713     50        290       0         0         0         0         0         
1      770       960       30714     290       291       0         0         0         0         0         
3      791       604       30714     290       189       0         0         0         0         0         
1      859       969       30714     290       290       0         0         0         0         0         
1      527       716       30714     52        189       0         0         0         0         0         
1      191       369       30714     266       52        0         0         0         0         0         
2      791       604       30714     290       189       0         0         0         0         0         
1      485       575       30714     189       189       0         0         0         0         0         
1      621       738       30714     280       189       0         0         0         0         0         
1      1002      1085      30714     291       291       0         0         0         0         0         
1      700       670       30714     290       280       0         0         0         0         0         
3      325       368       30715     299       299       0         0         0         0         0         
1      479       291       30715     52        87        0         0         0         0         0         
1      442       604       30715     168       189       0         0         0         0         0         
2      1115      1160      30715     84        84        0         0         0         0         0         
1      413       702       30715     52        290       0         0         0         0         0         
1      771       881       30716     290       290       0         0         0         0         0         
1      436       549       30716     100       52        0         0         0         0         0         
1      748       699       30716     290       290       0         0         0         0         0         
1      948       905       30716     290       290       0         0         0         0         0         
1      594       758       30716     131       131       0         0         0         0         0         
1      137       210       30716     286       266       0         0         0         0         0         
1      533       373       30717     199       119       0         0         0         0         0         
3      1002      1265      30717     291       192       0         0         0         0         0         
1      679       720       30717     290       290       0         0         0         0         0         
1      606       813       30717     189       290       0         0         0         0         0         
1      906       654       30717     290       189       0         0         0         0         0         
2      1002      1265      30717     291       192       0         0         0         0         0         
1      460       459       30717     189       189       0         0         0         0         0         
1      601       1207      30717     189       192       0         0         0         0         0         
1      1109      734       30717     291       131       0         0         0         0         0         
1      904       791       30717     290       290       0         0         0         0         0         
1      1010      652       30717     290       189       0         0         0         0         0         
1      771       812       30717     290       290       0         0         0         0         0         
1      60        556       30718     9         199       0         0         0         0         0         
1      949       11        30718     290       999       0         0         0         0         0         
1      873       697       30718     291       189       0         0         0         0         0         
1      605       583       30718     189       189       0         0         0         0         0         
3      1401      116       30719     129       9         0         0         0         0         0         
1      364       287       30719     299       299       0         0         0         0         0         
3      1401      116       30719     129       9         0         0         0         0         0         
1      443       699       30719     168       290       0         0         0         0         0         
2      464       676       30719     168       189       0         0         0         0         0         
3      791       81        30719     290       98        0         0         0         0         0         
2      970       675       30719     290       189       0         0         0         0         0         
1      679       924       30719     290       290       0         0         0         0         0         
1      374       532       30719     119       199       0         0         0         0         0         
